c description: Tseitin formula on Random 5-regular graph of 100 vertices, with odd charge
c generator: CNFgen (0.9.0)
c copyright: (C) 2012-2020 Massimo Lauria <massimo.lauria@uniroma1.it>
c url: https://massimolauria.net/cnfgen
c random seed: 1
c command line: cnfgen --seed 1 tseitin randomodd gnd 100 5
c
p cnf 250 1600
1 2 3 4 -5 0
1 2 3 -4 5 0
1 2 -3 4 5 0
1 2 -3 -4 -5 0
1 -2 3 4 5 0
1 -2 3 -4 -5 0
1 -2 -3 4 -5 0
1 -2 -3 -4 5 0
-1 2 3 4 5 0
-1 2 3 -4 -5 0
-1 2 -3 4 -5 0
-1 2 -3 -4 5 0
-1 -2 3 4 -5 0
-1 -2 3 -4 5 0
-1 -2 -3 4 5 0
-1 -2 -3 -4 -5 0
6 7 8 9 -10 0
6 7 8 -9 10 0
6 7 -8 9 10 0
6 7 -8 -9 -10 0
6 -7 8 9 10 0
6 -7 8 -9 -10 0
6 -7 -8 9 -10 0
6 -7 -8 -9 10 0
-6 7 8 9 10 0
-6 7 8 -9 -10 0
-6 7 -8 9 -10 0
-6 7 -8 -9 10 0
-6 -7 8 9 -10 0
-6 -7 8 -9 10 0
-6 -7 -8 9 10 0
-6 -7 -8 -9 -10 0
11 12 13 14 15 0
11 12 13 -14 -15 0
11 12 -13 14 -15 0
11 12 -13 -14 15 0
11 -12 13 14 -15 0
11 -12 13 -14 15 0
11 -12 -13 14 15 0
11 -12 -13 -14 -15 0
-11 12 13 14 -15 0
-11 12 13 -14 15 0
-11 12 -13 14 15 0
-11 12 -13 -14 -15 0
-11 -12 13 14 15 0
-11 -12 13 -14 -15 0
-11 -12 -13 14 -15 0
-11 -12 -13 -14 15 0
16 17 18 19 -20 0
16 17 18 -19 20 0
16 17 -18 19 20 0
16 17 -18 -19 -20 0
16 -17 18 19 20 0
16 -17 18 -19 -20 0
16 -17 -18 19 -20 0
16 -17 -18 -19 20 0
-16 17 18 19 20 0
-16 17 18 -19 -20 0
-16 17 -18 19 -20 0
-16 17 -18 -19 20 0
-16 -17 18 19 -20 0
-16 -17 18 -19 20 0
-16 -17 -18 19 20 0
-16 -17 -18 -19 -20 0
1 21 22 23 24 0
1 21 22 -23 -24 0
1 21 -22 23 -24 0
1 21 -22 -23 24 0
1 -21 22 23 -24 0
1 -21 22 -23 24 0
1 -21 -22 23 24 0
1 -21 -22 -23 -24 0
-1 21 22 23 -24 0
-1 21 22 -23 24 0
-1 21 -22 23 24 0
-1 21 -22 -23 -24 0
-1 -21 22 23 24 0
-1 -21 22 -23 -24 0
-1 -21 -22 23 -24 0
-1 -21 -22 -23 24 0
21 25 26 27 28 0
21 25 26 -27 -28 0
21 25 -26 27 -28 0
21 25 -26 -27 28 0
21 -25 26 27 -28 0
21 -25 26 -27 28 0
21 -25 -26 27 28 0
21 -25 -26 -27 -28 0
-21 25 26 27 -28 0
-21 25 26 -27 28 0
-21 25 -26 27 28 0
-21 25 -26 -27 -28 0
-21 -25 26 27 28 0
-21 -25 26 -27 -28 0
-21 -25 -26 27 -28 0
-21 -25 -26 -27 28 0
29 30 31 32 33 0
29 30 31 -32 -33 0
29 30 -31 32 -33 0
29 30 -31 -32 33 0
29 -30 31 32 -33 0
29 -30 31 -32 33 0
29 -30 -31 32 33 0
29 -30 -31 -32 -33 0
-29 30 31 32 -33 0
-29 30 31 -32 33 0
-29 30 -31 32 33 0
-29 30 -31 -32 -33 0
-29 -30 31 32 33 0
-29 -30 31 -32 -33 0
-29 -30 -31 32 -33 0
-29 -30 -31 -32 33 0
34 35 36 37 38 0
34 35 36 -37 -38 0
34 35 -36 37 -38 0
34 35 -36 -37 38 0
34 -35 36 37 -38 0
34 -35 36 -37 38 0
34 -35 -36 37 38 0
34 -35 -36 -37 -38 0
-34 35 36 37 -38 0
-34 35 36 -37 38 0
-34 35 -36 37 38 0
-34 35 -36 -37 -38 0
-34 -35 36 37 38 0
-34 -35 36 -37 -38 0
-34 -35 -36 37 -38 0
-34 -35 -36 -37 38 0
2 39 40 41 -42 0
2 39 40 -41 42 0
2 39 -40 41 42 0
2 39 -40 -41 -42 0
2 -39 40 41 42 0
2 -39 40 -41 -42 0
2 -39 -40 41 -42 0
2 -39 -40 -41 42 0
-2 39 40 41 42 0
-2 39 40 -41 -42 0
-2 39 -40 41 -42 0
-2 39 -40 -41 42 0
-2 -39 40 41 -42 0
-2 -39 40 -41 42 0
-2 -39 -40 41 42 0
-2 -39 -40 -41 -42 0
43 44 45 46 -47 0
43 44 45 -46 47 0
43 44 -45 46 47 0
43 44 -45 -46 -47 0
43 -44 45 46 47 0
43 -44 45 -46 -47 0
43 -44 -45 46 -47 0
43 -44 -45 -46 47 0
-43 44 45 46 47 0
-43 44 45 -46 -47 0
-43 44 -45 46 -47 0
-43 44 -45 -46 47 0
-43 -44 45 46 -47 0
-43 -44 45 -46 47 0
-43 -44 -45 46 47 0
-43 -44 -45 -46 -47 0
48 49 50 51 52 0
48 49 50 -51 -52 0
48 49 -50 51 -52 0
48 49 -50 -51 52 0
48 -49 50 51 -52 0
48 -49 50 -51 52 0
48 -49 -50 51 52 0
48 -49 -50 -51 -52 0
-48 49 50 51 -52 0
-48 49 50 -51 52 0
-48 49 -50 51 52 0
-48 49 -50 -51 -52 0
-48 -49 50 51 52 0
-48 -49 50 -51 -52 0
-48 -49 -50 51 -52 0
-48 -49 -50 -51 52 0
25 53 54 55 -56 0
25 53 54 -55 56 0
25 53 -54 55 56 0
25 53 -54 -55 -56 0
25 -53 54 55 56 0
25 -53 54 -55 -56 0
25 -53 -54 55 -56 0
25 -53 -54 -55 56 0
-25 53 54 55 56 0
-25 53 54 -55 -56 0
-25 53 -54 55 -56 0
-25 53 -54 -55 56 0
-25 -53 54 55 -56 0
-25 -53 54 -55 56 0
-25 -53 -54 55 56 0
-25 -53 -54 -55 -56 0
57 58 59 60 61 0
57 58 59 -60 -61 0
57 58 -59 60 -61 0
57 58 -59 -60 61 0
57 -58 59 60 -61 0
57 -58 59 -60 61 0
57 -58 -59 60 61 0
57 -58 -59 -60 -61 0
-57 58 59 60 -61 0
-57 58 59 -60 61 0
-57 58 -59 60 61 0
-57 58 -59 -60 -61 0
-57 -58 59 60 61 0
-57 -58 59 -60 -61 0
-57 -58 -59 60 -61 0
-57 -58 -59 -60 61 0
62 63 64 65 66 0
62 63 64 -65 -66 0
62 63 -64 65 -66 0
62 63 -64 -65 66 0
62 -63 64 65 -66 0
62 -63 64 -65 66 0
62 -63 -64 65 66 0
62 -63 -64 -65 -66 0
-62 63 64 65 -66 0
-62 63 64 -65 66 0
-62 63 -64 65 66 0
-62 63 -64 -65 -66 0
-62 -63 64 65 66 0
-62 -63 64 -65 -66 0
-62 -63 -64 65 -66 0
-62 -63 -64 -65 66 0
11 67 68 69 -70 0
11 67 68 -69 70 0
11 67 -68 69 70 0
11 67 -68 -69 -70 0
11 -67 68 69 70 0
11 -67 68 -69 -70 0
11 -67 -68 69 -70 0
11 -67 -68 -69 70 0
-11 67 68 69 70 0
-11 67 68 -69 -70 0
-11 67 -68 69 -70 0
-11 67 -68 -69 70 0
-11 -67 68 69 -70 0
-11 -67 68 -69 70 0
-11 -67 -68 69 70 0
-11 -67 -68 -69 -70 0
71 72 73 74 75 0
71 72 73 -74 -75 0
71 72 -73 74 -75 0
71 72 -73 -74 75 0
71 -72 73 74 -75 0
71 -72 73 -74 75 0
71 -72 -73 74 75 0
71 -72 -73 -74 -75 0
-71 72 73 74 -75 0
-71 72 73 -74 75 0
-71 72 -73 74 75 0
-71 72 -73 -74 -75 0
-71 -72 73 74 75 0
-71 -72 73 -74 -75 0
-71 -72 -73 74 -75 0
-71 -72 -73 -74 75 0
3 76 77 78 79 0
3 76 77 -78 -79 0
3 76 -77 78 -79 0
3 76 -77 -78 79 0
3 -76 77 78 -79 0
3 -76 77 -78 79 0
3 -76 -77 78 79 0
3 -76 -77 -78 -79 0
-3 76 77 78 -79 0
-3 76 77 -78 79 0
-3 76 -77 78 79 0
-3 76 -77 -78 -79 0
-3 -76 77 78 79 0
-3 -76 77 -78 -79 0
-3 -76 -77 78 -79 0
-3 -76 -77 -78 79 0
80 81 82 83 -84 0
80 81 82 -83 84 0
80 81 -82 83 84 0
80 81 -82 -83 -84 0
80 -81 82 83 84 0
80 -81 82 -83 -84 0
80 -81 -82 83 -84 0
80 -81 -82 -83 84 0
-80 81 82 83 84 0
-80 81 82 -83 -84 0
-80 81 -82 83 -84 0
-80 81 -82 -83 84 0
-80 -81 82 83 -84 0
-80 -81 82 -83 84 0
-80 -81 -82 83 84 0
-80 -81 -82 -83 -84 0
12 85 86 87 -88 0
12 85 86 -87 88 0
12 85 -86 87 88 0
12 85 -86 -87 -88 0
12 -85 86 87 88 0
12 -85 86 -87 -88 0
12 -85 -86 87 -88 0
12 -85 -86 -87 88 0
-12 85 86 87 88 0
-12 85 86 -87 -88 0
-12 85 -86 87 -88 0
-12 85 -86 -87 88 0
-12 -85 86 87 -88 0
-12 -85 86 -87 88 0
-12 -85 -86 87 88 0
-12 -85 -86 -87 -88 0
26 48 76 89 90 0
26 48 76 -89 -90 0
26 48 -76 89 -90 0
26 48 -76 -89 90 0
26 -48 76 89 -90 0
26 -48 76 -89 90 0
26 -48 -76 89 90 0
26 -48 -76 -89 -90 0
-26 48 76 89 -90 0
-26 48 76 -89 90 0
-26 48 -76 89 90 0
-26 48 -76 -89 -90 0
-26 -48 76 89 90 0
-26 -48 76 -89 -90 0
-26 -48 -76 89 -90 0
-26 -48 -76 -89 90 0
85 91 92 93 -94 0
85 91 92 -93 94 0
85 91 -92 93 94 0
85 91 -92 -93 -94 0
85 -91 92 93 94 0
85 -91 92 -93 -94 0
85 -91 -92 93 -94 0
85 -91 -92 -93 94 0
-85 91 92 93 94 0
-85 91 92 -93 -94 0
-85 91 -92 93 -94 0
-85 91 -92 -93 94 0
-85 -91 92 93 -94 0
-85 -91 92 -93 94 0
-85 -91 -92 93 94 0
-85 -91 -92 -93 -94 0
53 95 96 97 -98 0
53 95 96 -97 98 0
53 95 -96 97 98 0
53 95 -96 -97 -98 0
53 -95 96 97 98 0
53 -95 96 -97 -98 0
53 -95 -96 97 -98 0
53 -95 -96 -97 98 0
-53 95 96 97 98 0
-53 95 96 -97 -98 0
-53 95 -96 97 -98 0
-53 95 -96 -97 98 0
-53 -95 96 97 -98 0
-53 -95 96 -97 98 0
-53 -95 -96 97 98 0
-53 -95 -96 -97 -98 0
34 80 99 100 -101 0
34 80 99 -100 101 0
34 80 -99 100 101 0
34 80 -99 -100 -101 0
34 -80 99 100 101 0
34 -80 99 -100 -101 0
34 -80 -99 100 -101 0
34 -80 -99 -100 101 0
-34 80 99 100 101 0
-34 80 99 -100 -101 0
-34 80 -99 100 -101 0
-34 80 -99 -100 101 0
-34 -80 99 100 -101 0
-34 -80 99 -100 101 0
-34 -80 -99 100 101 0
-34 -80 -99 -100 -101 0
6 39 102 103 -104 0
6 39 102 -103 104 0
6 39 -102 103 104 0
6 39 -102 -103 -104 0
6 -39 102 103 104 0
6 -39 102 -103 -104 0
6 -39 -102 103 -104 0
6 -39 -102 -103 104 0
-6 39 102 103 104 0
-6 39 102 -103 -104 0
-6 39 -102 103 -104 0
-6 39 -102 -103 104 0
-6 -39 102 103 -104 0
-6 -39 102 -103 104 0
-6 -39 -102 103 104 0
-6 -39 -102 -103 -104 0
105 106 107 108 109 0
105 106 107 -108 -109 0
105 106 -107 108 -109 0
105 106 -107 -108 109 0
105 -106 107 108 -109 0
105 -106 107 -108 109 0
105 -106 -107 108 109 0
105 -106 -107 -108 -109 0
-105 106 107 108 -109 0
-105 106 107 -108 109 0
-105 106 -107 108 109 0
-105 106 -107 -108 -109 0
-105 -106 107 108 109 0
-105 -106 107 -108 -109 0
-105 -106 -107 108 -109 0
-105 -106 -107 -108 109 0
7 110 111 112 -113 0
7 110 111 -112 113 0
7 110 -111 112 113 0
7 110 -111 -112 -113 0
7 -110 111 112 113 0
7 -110 111 -112 -113 0
7 -110 -111 112 -113 0
7 -110 -111 -112 113 0
-7 110 111 112 113 0
-7 110 111 -112 -113 0
-7 110 -111 112 -113 0
-7 110 -111 -112 113 0
-7 -110 111 112 -113 0
-7 -110 111 -112 113 0
-7 -110 -111 112 113 0
-7 -110 -111 -112 -113 0
86 114 115 116 117 0
86 114 115 -116 -117 0
86 114 -115 116 -117 0
86 114 -115 -116 117 0
86 -114 115 116 -117 0
86 -114 115 -116 117 0
86 -114 -115 116 117 0
86 -114 -115 -116 -117 0
-86 114 115 116 -117 0
-86 114 115 -116 117 0
-86 114 -115 116 117 0
-86 114 -115 -116 -117 0
-86 -114 115 116 117 0
-86 -114 115 -116 -117 0
-86 -114 -115 116 -117 0
-86 -114 -115 -116 117 0
57 71 105 118 -119 0
57 71 105 -118 119 0
57 71 -105 118 119 0
57 71 -105 -118 -119 0
57 -71 105 118 119 0
57 -71 105 -118 -119 0
57 -71 -105 118 -119 0
57 -71 -105 -118 119 0
-57 71 105 118 119 0
-57 71 105 -118 -119 0
-57 71 -105 118 -119 0
-57 71 -105 -118 119 0
-57 -71 105 118 -119 0
-57 -71 105 -118 119 0
-57 -71 -105 118 119 0
-57 -71 -105 -118 -119 0
40 81 120 121 -122 0
40 81 120 -121 122 0
40 81 -120 121 122 0
40 81 -120 -121 -122 0
40 -81 120 121 122 0
40 -81 120 -121 -122 0
40 -81 -120 121 -122 0
40 -81 -120 -121 122 0
-40 81 120 121 122 0
-40 81 120 -121 -122 0
-40 81 -120 121 -122 0
-40 81 -120 -121 122 0
-40 -81 120 121 -122 0
-40 -81 120 -121 122 0
-40 -81 -120 121 122 0
-40 -81 -120 -121 -122 0
27 35 123 124 125 0
27 35 123 -124 -125 0
27 35 -123 124 -125 0
27 35 -123 -124 125 0
27 -35 123 124 -125 0
27 -35 123 -124 125 0
27 -35 -123 124 125 0
27 -35 -123 -124 -125 0
-27 35 123 124 -125 0
-27 35 123 -124 125 0
-27 35 -123 124 125 0
-27 35 -123 -124 -125 0
-27 -35 123 124 125 0
-27 -35 123 -124 -125 0
-27 -35 -123 124 -125 0
-27 -35 -123 -124 125 0
126 127 128 129 130 0
126 127 128 -129 -130 0
126 127 -128 129 -130 0
126 127 -128 -129 130 0
126 -127 128 129 -130 0
126 -127 128 -129 130 0
126 -127 -128 129 130 0
126 -127 -128 -129 -130 0
-126 127 128 129 -130 0
-126 127 128 -129 130 0
-126 127 -128 129 130 0
-126 127 -128 -129 -130 0
-126 -127 128 129 130 0
-126 -127 128 -129 -130 0
-126 -127 -128 129 -130 0
-126 -127 -128 -129 130 0
87 118 131 132 -133 0
87 118 131 -132 133 0
87 118 -131 132 133 0
87 118 -131 -132 -133 0
87 -118 131 132 133 0
87 -118 131 -132 -133 0
87 -118 -131 132 -133 0
87 -118 -131 -132 133 0
-87 118 131 132 133 0
-87 118 131 -132 -133 0
-87 118 -131 132 -133 0
-87 118 -131 -132 133 0
-87 -118 131 132 -133 0
-87 -118 131 -132 133 0
-87 -118 -131 132 133 0
-87 -118 -131 -132 -133 0
13 126 134 135 136 0
13 126 134 -135 -136 0
13 126 -134 135 -136 0
13 126 -134 -135 136 0
13 -126 134 135 -136 0
13 -126 134 -135 136 0
13 -126 -134 135 136 0
13 -126 -134 -135 -136 0
-13 126 134 135 -136 0
-13 126 134 -135 136 0
-13 126 -134 135 136 0
-13 126 -134 -135 -136 0
-13 -126 134 135 136 0
-13 -126 134 -135 -136 0
-13 -126 -134 135 -136 0
-13 -126 -134 -135 136 0
91 137 138 139 -140 0
91 137 138 -139 140 0
91 137 -138 139 140 0
91 137 -138 -139 -140 0
91 -137 138 139 140 0
91 -137 138 -139 -140 0
91 -137 -138 139 -140 0
91 -137 -138 -139 140 0
-91 137 138 139 140 0
-91 137 138 -139 -140 0
-91 137 -138 139 -140 0
-91 137 -138 -139 140 0
-91 -137 138 139 -140 0
-91 -137 138 -139 140 0
-91 -137 -138 139 140 0
-91 -137 -138 -139 -140 0
16 28 141 142 -143 0
16 28 141 -142 143 0
16 28 -141 142 143 0
16 28 -141 -142 -143 0
16 -28 141 142 143 0
16 -28 141 -142 -143 0
16 -28 -141 142 -143 0
16 -28 -141 -142 143 0
-16 28 141 142 143 0
-16 28 141 -142 -143 0
-16 28 -141 142 -143 0
-16 28 -141 -142 143 0
-16 -28 141 142 -143 0
-16 -28 141 -142 143 0
-16 -28 -141 142 143 0
-16 -28 -141 -142 -143 0
17 144 145 146 147 0
17 144 145 -146 -147 0
17 144 -145 146 -147 0
17 144 -145 -146 147 0
17 -144 145 146 -147 0
17 -144 145 -146 147 0
17 -144 -145 146 147 0
17 -144 -145 -146 -147 0
-17 144 145 146 -147 0
-17 144 145 -146 147 0
-17 144 -145 146 147 0
-17 144 -145 -146 -147 0
-17 -144 145 146 147 0
-17 -144 145 -146 -147 0
-17 -144 -145 146 -147 0
-17 -144 -145 -146 147 0
18 148 149 150 151 0
18 148 149 -150 -151 0
18 148 -149 150 -151 0
18 148 -149 -150 151 0
18 -148 149 150 -151 0
18 -148 149 -150 151 0
18 -148 -149 150 151 0
18 -148 -149 -150 -151 0
-18 148 149 150 -151 0
-18 148 149 -150 151 0
-18 148 -149 150 151 0
-18 148 -149 -150 -151 0
-18 -148 149 150 151 0
-18 -148 149 -150 -151 0
-18 -148 -149 150 -151 0
-18 -148 -149 -150 151 0
152 153 154 155 -156 0
152 153 154 -155 156 0
152 153 -154 155 156 0
152 153 -154 -155 -156 0
152 -153 154 155 156 0
152 -153 154 -155 -156 0
152 -153 -154 155 -156 0
152 -153 -154 -155 156 0
-152 153 154 155 156 0
-152 153 154 -155 -156 0
-152 153 -154 155 -156 0
-152 153 -154 -155 156 0
-152 -153 154 155 -156 0
-152 -153 154 -155 156 0
-152 -153 -154 155 156 0
-152 -153 -154 -155 -156 0
120 123 157 158 159 0
120 123 157 -158 -159 0
120 123 -157 158 -159 0
120 123 -157 -158 159 0
120 -123 157 158 -159 0
120 -123 157 -158 159 0
120 -123 -157 158 159 0
120 -123 -157 -158 -159 0
-120 123 157 158 -159 0
-120 123 157 -158 159 0
-120 123 -157 158 159 0
-120 123 -157 -158 -159 0
-120 -123 157 158 159 0
-120 -123 157 -158 -159 0
-120 -123 -157 158 -159 0
-120 -123 -157 -158 159 0
77 160 161 162 -163 0
77 160 161 -162 163 0
77 160 -161 162 163 0
77 160 -161 -162 -163 0
77 -160 161 162 163 0
77 -160 161 -162 -163 0
77 -160 -161 162 -163 0
77 -160 -161 -162 163 0
-77 160 161 162 163 0
-77 160 161 -162 -163 0
-77 160 -161 162 -163 0
-77 160 -161 -162 163 0
-77 -160 161 162 -163 0
-77 -160 161 -162 163 0
-77 -160 -161 162 163 0
-77 -160 -161 -162 -163 0
29 67 114 164 -165 0
29 67 114 -164 165 0
29 67 -114 164 165 0
29 67 -114 -164 -165 0
29 -67 114 164 165 0
29 -67 114 -164 -165 0
29 -67 -114 164 -165 0
29 -67 -114 -164 165 0
-29 67 114 164 165 0
-29 67 114 -164 -165 0
-29 67 -114 164 -165 0
-29 67 -114 -164 165 0
-29 -67 114 164 -165 0
-29 -67 114 -164 165 0
-29 -67 -114 164 165 0
-29 -67 -114 -164 -165 0
166 167 168 169 170 0
166 167 168 -169 -170 0
166 167 -168 169 -170 0
166 167 -168 -169 170 0
166 -167 168 169 -170 0
166 -167 168 -169 170 0
166 -167 -168 169 170 0
166 -167 -168 -169 -170 0
-166 167 168 169 -170 0
-166 167 168 -169 170 0
-166 167 -168 169 170 0
-166 167 -168 -169 -170 0
-166 -167 168 169 170 0
-166 -167 168 -169 -170 0
-166 -167 -168 169 -170 0
-166 -167 -168 -169 170 0
14 171 172 173 -174 0
14 171 172 -173 174 0
14 171 -172 173 174 0
14 171 -172 -173 -174 0
14 -171 172 173 174 0
14 -171 172 -173 -174 0
14 -171 -172 173 -174 0
14 -171 -172 -173 174 0
-14 171 172 173 174 0
-14 171 172 -173 -174 0
-14 171 -172 173 -174 0
-14 171 -172 -173 174 0
-14 -171 172 173 -174 0
-14 -171 172 -173 174 0
-14 -171 -172 173 174 0
-14 -171 -172 -173 -174 0
19 88 141 175 176 0
19 88 141 -175 -176 0
19 88 -141 175 -176 0
19 88 -141 -175 176 0
19 -88 141 175 -176 0
19 -88 141 -175 176 0
19 -88 -141 175 176 0
19 -88 -141 -175 -176 0
-19 88 141 175 -176 0
-19 88 141 -175 176 0
-19 88 -141 175 176 0
-19 88 -141 -175 -176 0
-19 -88 141 175 176 0
-19 -88 141 -175 -176 0
-19 -88 -141 175 -176 0
-19 -88 -141 -175 176 0
22 54 177 178 179 0
22 54 177 -178 -179 0
22 54 -177 178 -179 0
22 54 -177 -178 179 0
22 -54 177 178 -179 0
22 -54 177 -178 179 0
22 -54 -177 178 179 0
22 -54 -177 -178 -179 0
-22 54 177 178 -179 0
-22 54 177 -178 179 0
-22 54 -177 178 179 0
-22 54 -177 -178 -179 0
-22 -54 177 178 179 0
-22 -54 177 -178 -179 0
-22 -54 -177 178 -179 0
-22 -54 -177 -178 179 0
8 36 72 78 -180 0
8 36 72 -78 180 0
8 36 -72 78 180 0
8 36 -72 -78 -180 0
8 -36 72 78 180 0
8 -36 72 -78 -180 0
8 -36 -72 78 -180 0
8 -36 -72 -78 180 0
-8 36 72 78 180 0
-8 36 72 -78 -180 0
-8 36 -72 78 -180 0
-8 36 -72 -78 180 0
-8 -36 72 78 -180 0
-8 -36 72 -78 180 0
-8 -36 -72 78 180 0
-8 -36 -72 -78 -180 0
58 89 181 182 183 0
58 89 181 -182 -183 0
58 89 -181 182 -183 0
58 89 -181 -182 183 0
58 -89 181 182 -183 0
58 -89 181 -182 183 0
58 -89 -181 182 183 0
58 -89 -181 -182 -183 0
-58 89 181 182 -183 0
-58 89 181 -182 183 0
-58 89 -181 182 183 0
-58 89 -181 -182 -183 0
-58 -89 181 182 183 0
-58 -89 181 -182 -183 0
-58 -89 -181 182 -183 0
-58 -89 -181 -182 183 0
152 184 185 186 187 0
152 184 185 -186 -187 0
152 184 -185 186 -187 0
152 184 -185 -186 187 0
152 -184 185 186 -187 0
152 -184 185 -186 187 0
152 -184 -185 186 187 0
152 -184 -185 -186 -187 0
-152 184 185 186 -187 0
-152 184 185 -186 187 0
-152 184 -185 186 187 0
-152 184 -185 -186 -187 0
-152 -184 185 186 187 0
-152 -184 185 -186 -187 0
-152 -184 -185 186 -187 0
-152 -184 -185 -186 187 0
92 171 188 189 190 0
92 171 188 -189 -190 0
92 171 -188 189 -190 0
92 171 -188 -189 190 0
92 -171 188 189 -190 0
92 -171 188 -189 190 0
92 -171 -188 189 190 0
92 -171 -188 -189 -190 0
-92 171 188 189 -190 0
-92 171 188 -189 190 0
-92 171 -188 189 190 0
-92 171 -188 -189 -190 0
-92 -171 188 189 190 0
-92 -171 188 -189 -190 0
-92 -171 -188 189 -190 0
-92 -171 -188 -189 190 0
43 90 191 192 193 0
43 90 191 -192 -193 0
43 90 -191 192 -193 0
43 90 -191 -192 193 0
43 -90 191 192 -193 0
43 -90 191 -192 193 0
43 -90 -191 192 193 0
43 -90 -191 -192 -193 0
-43 90 191 192 -193 0
-43 90 191 -192 193 0
-43 90 -191 192 193 0
-43 90 -191 -192 -193 0
-43 -90 191 192 193 0
-43 -90 191 -192 -193 0
-43 -90 -191 192 -193 0
-43 -90 -191 -192 193 0
44 115 194 195 -196 0
44 115 194 -195 196 0
44 115 -194 195 196 0
44 115 -194 -195 -196 0
44 -115 194 195 196 0
44 -115 194 -195 -196 0
44 -115 -194 195 -196 0
44 -115 -194 -195 196 0
-44 115 194 195 196 0
-44 115 194 -195 -196 0
-44 115 -194 195 -196 0
-44 115 -194 -195 196 0
-44 -115 194 195 -196 0
-44 -115 194 -195 196 0
-44 -115 -194 195 196 0
-44 -115 -194 -195 -196 0
15 23 41 142 197 0
15 23 41 -142 -197 0
15 23 -41 142 -197 0
15 23 -41 -142 197 0
15 -23 41 142 -197 0
15 -23 41 -142 197 0
15 -23 -41 142 197 0
15 -23 -41 -142 -197 0
-15 23 41 142 -197 0
-15 23 41 -142 197 0
-15 23 -41 142 197 0
-15 23 -41 -142 -197 0
-15 -23 41 142 197 0
-15 -23 41 -142 -197 0
-15 -23 -41 142 -197 0
-15 -23 -41 -142 197 0
102 131 181 198 -199 0
102 131 181 -198 199 0
102 131 -181 198 199 0
102 131 -181 -198 -199 0
102 -131 181 198 199 0
102 -131 181 -198 -199 0
102 -131 -181 198 -199 0
102 -131 -181 -198 199 0
-102 131 181 198 199 0
-102 131 181 -198 -199 0
-102 131 -181 198 -199 0
-102 131 -181 -198 199 0
-102 -131 181 198 -199 0
-102 -131 181 -198 199 0
-102 -131 -181 198 199 0
-102 -131 -181 -198 -199 0
37 200 201 202 203 0
37 200 201 -202 -203 0
37 200 -201 202 -203 0
37 200 -201 -202 203 0
37 -200 201 202 -203 0
37 -200 201 -202 203 0
37 -200 -201 202 203 0
37 -200 -201 -202 -203 0
-37 200 201 202 -203 0
-37 200 201 -202 203 0
-37 200 -201 202 203 0
-37 200 -201 -202 -203 0
-37 -200 201 202 203 0
-37 -200 201 -202 -203 0
-37 -200 -201 202 -203 0
-37 -200 -201 -202 203 0
20 45 148 157 204 0
20 45 148 -157 -204 0
20 45 -148 157 -204 0
20 45 -148 -157 204 0
20 -45 148 157 -204 0
20 -45 148 -157 204 0
20 -45 -148 157 204 0
20 -45 -148 -157 -204 0
-20 45 148 157 -204 0
-20 45 148 -157 204 0
-20 45 -148 157 204 0
-20 45 -148 -157 -204 0
-20 -45 148 157 204 0
-20 -45 148 -157 -204 0
-20 -45 -148 157 -204 0
-20 -45 -148 -157 204 0
9 124 205 206 -207 0
9 124 205 -206 207 0
9 124 -205 206 207 0
9 124 -205 -206 -207 0
9 -124 205 206 207 0
9 -124 205 -206 -207 0
9 -124 -205 206 -207 0
9 -124 -205 -206 207 0
-9 124 205 206 207 0
-9 124 205 -206 -207 0
-9 124 -205 206 -207 0
-9 124 -205 -206 207 0
-9 -124 205 206 -207 0
-9 -124 205 -206 207 0
-9 -124 -205 206 207 0
-9 -124 -205 -206 -207 0
134 144 204 208 209 0
134 144 204 -208 -209 0
134 144 -204 208 -209 0
134 144 -204 -208 209 0
134 -144 204 208 -209 0
134 -144 204 -208 209 0
134 -144 -204 208 209 0
134 -144 -204 -208 -209 0
-134 144 204 208 -209 0
-134 144 204 -208 209 0
-134 144 -204 208 209 0
-134 144 -204 -208 -209 0
-134 -144 204 208 209 0
-134 -144 204 -208 -209 0
-134 -144 -204 208 -209 0
-134 -144 -204 -208 209 0
62 103 135 175 210 0
62 103 135 -175 -210 0
62 103 -135 175 -210 0
62 103 -135 -175 210 0
62 -103 135 175 -210 0
62 -103 135 -175 210 0
62 -103 -135 175 210 0
62 -103 -135 -175 -210 0
-62 103 135 175 -210 0
-62 103 135 -175 210 0
-62 103 -135 175 210 0
-62 103 -135 -175 -210 0
-62 -103 135 175 210 0
-62 -103 135 -175 -210 0
-62 -103 -135 175 -210 0
-62 -103 -135 -175 210 0
110 211 212 213 -214 0
110 211 212 -213 214 0
110 211 -212 213 214 0
110 211 -212 -213 -214 0
110 -211 212 213 214 0
110 -211 212 -213 -214 0
110 -211 -212 213 -214 0
110 -211 -212 -213 214 0
-110 211 212 213 214 0
-110 211 212 -213 -214 0
-110 211 -212 213 -214 0
-110 211 -212 -213 214 0
-110 -211 212 213 -214 0
-110 -211 212 -213 214 0
-110 -211 -212 213 214 0
-110 -211 -212 -213 -214 0
166 215 216 217 218 0
166 215 216 -217 -218 0
166 215 -216 217 -218 0
166 215 -216 -217 218 0
166 -215 216 217 -218 0
166 -215 216 -217 218 0
166 -215 -216 217 218 0
166 -215 -216 -217 -218 0
-166 215 216 217 -218 0
-166 215 216 -217 218 0
-166 215 -216 217 218 0
-166 215 -216 -217 -218 0
-166 -215 216 217 218 0
-166 -215 216 -217 -218 0
-166 -215 -216 217 -218 0
-166 -215 -216 -217 218 0
38 46 49 79 -215 0
38 46 49 -79 215 0
38 46 -49 79 215 0
38 46 -49 -79 -215 0
38 -46 49 79 215 0
38 -46 49 -79 -215 0
38 -46 -49 79 -215 0
38 -46 -49 -79 215 0
-38 46 49 79 215 0
-38 46 49 -79 -215 0
-38 46 -49 79 -215 0
-38 46 -49 -79 215 0
-38 -46 49 79 -215 0
-38 -46 49 -79 215 0
-38 -46 -49 79 215 0
-38 -46 -49 -79 -215 0
125 145 153 194 -219 0
125 145 153 -194 219 0
125 145 -153 194 219 0
125 145 -153 -194 -219 0
125 -145 153 194 219 0
125 -145 153 -194 -219 0
125 -145 -153 194 -219 0
125 -145 -153 -194 219 0
-125 145 153 194 219 0
-125 145 153 -194 -219 0
-125 145 -153 194 -219 0
-125 145 -153 -194 219 0
-125 -145 153 194 -219 0
-125 -145 153 -194 219 0
-125 -145 -153 194 219 0
-125 -145 -153 -194 -219 0
30 149 167 220 221 0
30 149 167 -220 -221 0
30 149 -167 220 -221 0
30 149 -167 -220 221 0
30 -149 167 220 -221 0
30 -149 167 -220 221 0
30 -149 -167 220 221 0
30 -149 -167 -220 -221 0
-30 149 167 220 -221 0
-30 149 167 -220 221 0
-30 149 -167 220 221 0
-30 149 -167 -220 -221 0
-30 -149 167 220 221 0
-30 -149 167 -220 -221 0
-30 -149 -167 220 -221 0
-30 -149 -167 -220 221 0
10 116 150 160 216 0
10 116 150 -160 -216 0
10 116 -150 160 -216 0
10 116 -150 -160 216 0
10 -116 150 160 -216 0
10 -116 150 -160 216 0
10 -116 -150 160 216 0
10 -116 -150 -160 -216 0
-10 116 150 160 -216 0
-10 116 150 -160 216 0
-10 116 -150 160 216 0
-10 116 -150 -160 -216 0
-10 -116 150 160 216 0
-10 -116 150 -160 -216 0
-10 -116 -150 160 -216 0
-10 -116 -150 -160 216 0
50 55 191 220 222 0
50 55 191 -220 -222 0
50 55 -191 220 -222 0
50 55 -191 -220 222 0
50 -55 191 220 -222 0
50 -55 191 -220 222 0
50 -55 -191 220 222 0
50 -55 -191 -220 -222 0
-50 55 191 220 -222 0
-50 55 191 -220 222 0
-50 55 -191 220 222 0
-50 55 -191 -220 -222 0
-50 -55 191 220 222 0
-50 -55 191 -220 -222 0
-50 -55 -191 220 -222 0
-50 -55 -191 -220 222 0
95 99 161 182 -217 0
95 99 161 -182 217 0
95 99 -161 182 217 0
95 99 -161 -182 -217 0
95 -99 161 182 217 0
95 -99 161 -182 -217 0
95 -99 -161 182 -217 0
95 -99 -161 -182 217 0
-95 99 161 182 217 0
-95 99 161 -182 -217 0
-95 99 -161 182 -217 0
-95 99 -161 -182 217 0
-95 -99 161 182 -217 0
-95 -99 161 -182 217 0
-95 -99 -161 182 217 0
-95 -99 -161 -182 -217 0
96 200 223 224 225 0
96 200 223 -224 -225 0
96 200 -223 224 -225 0
96 200 -223 -224 225 0
96 -200 223 224 -225 0
96 -200 223 -224 225 0
96 -200 -223 224 225 0
96 -200 -223 -224 -225 0
-96 200 223 224 -225 0
-96 200 223 -224 225 0
-96 200 -223 224 225 0
-96 200 -223 -224 -225 0
-96 -200 223 224 225 0
-96 -200 223 -224 -225 0
-96 -200 -223 224 -225 0
-96 -200 -223 -224 225 0
51 59 63 221 -226 0
51 59 63 -221 226 0
51 59 -63 221 226 0
51 59 -63 -221 -226 0
51 -59 63 221 226 0
51 -59 63 -221 -226 0
51 -59 -63 221 -226 0
51 -59 -63 -221 226 0
-51 59 63 221 226 0
-51 59 63 -221 -226 0
-51 59 -63 221 -226 0
-51 59 -63 -221 226 0
-51 -59 63 221 -226 0
-51 -59 63 -221 226 0
-51 -59 -63 221 226 0
-51 -59 -63 -221 -226 0
52 132 162 227 228 0
52 132 162 -227 -228 0
52 132 -162 227 -228 0
52 132 -162 -227 228 0
52 -132 162 227 -228 0
52 -132 162 -227 228 0
52 -132 -162 227 228 0
52 -132 -162 -227 -228 0
-52 132 162 227 -228 0
-52 132 162 -227 228 0
-52 132 -162 227 228 0
-52 132 -162 -227 -228 0
-52 -132 162 227 228 0
-52 -132 162 -227 -228 0
-52 -132 -162 227 -228 0
-52 -132 -162 -227 228 0
31 192 211 229 230 0
31 192 211 -229 -230 0
31 192 -211 229 -230 0
31 192 -211 -229 230 0
31 -192 211 229 -230 0
31 -192 211 -229 230 0
31 -192 -211 229 230 0
31 -192 -211 -229 -230 0
-31 192 211 229 -230 0
-31 192 211 -229 230 0
-31 192 -211 229 230 0
-31 192 -211 -229 -230 0
-31 -192 211 229 230 0
-31 -192 211 -229 -230 0
-31 -192 -211 229 -230 0
-31 -192 -211 -229 230 0
4 133 164 231 -232 0
4 133 164 -231 232 0
4 133 -164 231 232 0
4 133 -164 -231 -232 0
4 -133 164 231 232 0
4 -133 164 -231 -232 0
4 -133 -164 231 -232 0
4 -133 -164 -231 232 0
-4 133 164 231 232 0
-4 133 164 -231 -232 0
-4 133 -164 231 -232 0
-4 133 -164 -231 232 0
-4 -133 164 231 -232 0
-4 -133 164 -231 232 0
-4 -133 -164 231 232 0
-4 -133 -164 -231 -232 0
64 163 172 184 -205 0
64 163 172 -184 205 0
64 163 -172 184 205 0
64 163 -172 -184 -205 0
64 -163 172 184 205 0
64 -163 172 -184 -205 0
64 -163 -172 184 -205 0
64 -163 -172 -184 205 0
-64 163 172 184 205 0
-64 163 172 -184 -205 0
-64 163 -172 184 -205 0
-64 163 -172 -184 205 0
-64 -163 172 184 -205 0
-64 -163 172 -184 205 0
-64 -163 -172 184 205 0
-64 -163 -172 -184 -205 0
32 100 146 176 -233 0
32 100 146 -176 233 0
32 100 -146 176 233 0
32 100 -146 -176 -233 0
32 -100 146 176 233 0
32 -100 146 -176 -233 0
32 -100 -146 176 -233 0
32 -100 -146 -176 233 0
-32 100 146 176 233 0
-32 100 146 -176 -233 0
-32 100 -146 176 -233 0
-32 100 -146 -176 233 0
-32 -100 146 176 -233 0
-32 -100 146 -176 233 0
-32 -100 -146 176 233 0
-32 -100 -146 -176 -233 0
106 127 137 206 -234 0
106 127 137 -206 234 0
106 127 -137 206 234 0
106 127 -137 -206 -234 0
106 -127 137 206 234 0
106 -127 137 -206 -234 0
106 -127 -137 206 -234 0
106 -127 -137 -206 234 0
-106 127 137 206 234 0
-106 127 137 -206 -234 0
-106 127 -137 206 -234 0
-106 127 -137 -206 234 0
-106 -127 137 206 -234 0
-106 -127 137 -206 234 0
-106 -127 -137 206 234 0
-106 -127 -137 -206 -234 0
229 231 235 236 -237 0
229 231 235 -236 237 0
229 231 -235 236 237 0
229 231 -235 -236 -237 0
229 -231 235 236 237 0
229 -231 235 -236 -237 0
229 -231 -235 236 -237 0
229 -231 -235 -236 237 0
-229 231 235 236 237 0
-229 231 235 -236 -237 0
-229 231 -235 236 -237 0
-229 231 -235 -236 237 0
-229 -231 235 236 -237 0
-229 -231 235 -236 237 0
-229 -231 -235 236 237 0
-229 -231 -235 -236 -237 0
68 111 180 185 -218 0
68 111 180 -185 218 0
68 111 -180 185 218 0
68 111 -180 -185 -218 0
68 -111 180 185 218 0
68 -111 180 -185 -218 0
68 -111 -180 185 -218 0
68 -111 -180 -185 218 0
-68 111 180 185 218 0
-68 111 180 -185 -218 0
-68 111 -180 185 -218 0
-68 111 -180 -185 218 0
-68 -111 180 185 -218 0
-68 -111 180 -185 218 0
-68 -111 -180 185 218 0
-68 -111 -180 -185 -218 0
33 65 143 188 223 0
33 65 143 -188 -223 0
33 65 -143 188 -223 0
33 65 -143 -188 223 0
33 -65 143 188 -223 0
33 -65 143 -188 223 0
33 -65 -143 188 223 0
33 -65 -143 -188 -223 0
-33 65 143 188 -223 0
-33 65 143 -188 223 0
-33 65 -143 188 223 0
-33 65 -143 -188 -223 0
-33 -65 143 188 223 0
-33 -65 143 -188 -223 0
-33 -65 -143 188 -223 0
-33 -65 -143 -188 223 0
112 117 208 224 235 0
112 117 208 -224 -235 0
112 117 -208 224 -235 0
112 117 -208 -224 235 0
112 -117 208 224 -235 0
112 -117 208 -224 235 0
112 -117 -208 224 235 0
112 -117 -208 -224 -235 0
-112 117 208 224 -235 0
-112 117 208 -224 235 0
-112 117 -208 224 235 0
-112 117 -208 -224 -235 0
-112 -117 208 224 235 0
-112 -117 208 -224 -235 0
-112 -117 -208 224 -235 0
-112 -117 -208 -224 235 0
158 168 177 230 238 0
158 168 177 -230 -238 0
158 168 -177 230 -238 0
158 168 -177 -230 238 0
158 -168 177 230 -238 0
158 -168 177 -230 238 0
158 -168 -177 230 238 0
158 -168 -177 -230 -238 0
-158 168 177 230 -238 0
-158 168 177 -230 238 0
-158 168 -177 230 238 0
-158 168 -177 -230 -238 0
-158 -168 177 230 238 0
-158 -168 177 -230 -238 0
-158 -168 -177 230 -238 0
-158 -168 -177 -230 238 0
69 97 119 138 239 0
69 97 119 -138 -239 0
69 97 -119 138 -239 0
69 97 -119 -138 239 0
69 -97 119 138 -239 0
69 -97 119 -138 239 0
69 -97 -119 138 239 0
69 -97 -119 -138 -239 0
-69 97 119 138 -239 0
-69 97 119 -138 239 0
-69 97 -119 138 239 0
-69 97 -119 -138 -239 0
-69 -97 119 138 239 0
-69 -97 119 -138 -239 0
-69 -97 -119 138 -239 0
-69 -97 -119 -138 239 0
121 154 210 234 240 0
121 154 210 -234 -240 0
121 154 -210 234 -240 0
121 154 -210 -234 240 0
121 -154 210 234 -240 0
121 -154 210 -234 240 0
121 -154 -210 234 240 0
121 -154 -210 -234 -240 0
-121 154 210 234 -240 0
-121 154 210 -234 240 0
-121 154 -210 234 240 0
-121 154 -210 -234 -240 0
-121 -154 210 234 240 0
-121 -154 210 -234 -240 0
-121 -154 -210 234 -240 0
-121 -154 -210 -234 240 0
60 66 189 236 -241 0
60 66 189 -236 241 0
60 66 -189 236 241 0
60 66 -189 -236 -241 0
60 -66 189 236 241 0
60 -66 189 -236 -241 0
60 -66 -189 236 -241 0
60 -66 -189 -236 241 0
-60 66 189 236 241 0
-60 66 189 -236 -241 0
-60 66 -189 236 -241 0
-60 66 -189 -236 241 0
-60 -66 189 236 -241 0
-60 -66 189 -236 241 0
-60 -66 -189 236 241 0
-60 -66 -189 -236 -241 0
73 104 198 212 242 0
73 104 198 -212 -242 0
73 104 -198 212 -242 0
73 104 -198 -212 242 0
73 -104 198 212 -242 0
73 -104 198 -212 242 0
73 -104 -198 212 242 0
73 -104 -198 -212 -242 0
-73 104 198 212 -242 0
-73 104 198 -212 242 0
-73 104 -198 212 242 0
-73 104 -198 -212 -242 0
-73 -104 198 212 242 0
-73 -104 198 -212 -242 0
-73 -104 -198 212 -242 0
-73 -104 -198 -212 242 0
165 178 209 238 -240 0
165 178 209 -238 240 0
165 178 -209 238 240 0
165 178 -209 -238 -240 0
165 -178 209 238 240 0
165 -178 209 -238 -240 0
165 -178 -209 238 -240 0
165 -178 -209 -238 240 0
-165 178 209 238 240 0
-165 178 209 -238 -240 0
-165 178 -209 238 -240 0
-165 178 -209 -238 240 0
-165 -178 209 238 -240 0
-165 -178 209 -238 240 0
-165 -178 -209 238 240 0
-165 -178 -209 -238 -240 0
56 93 242 243 -244 0
56 93 242 -243 244 0
56 93 -242 243 244 0
56 93 -242 -243 -244 0
56 -93 242 243 244 0
56 -93 242 -243 -244 0
56 -93 -242 243 -244 0
56 -93 -242 -243 244 0
-56 93 242 243 244 0
-56 93 242 -243 -244 0
-56 93 -242 243 -244 0
-56 93 -242 -243 244 0
-56 -93 242 243 -244 0
-56 -93 242 -243 244 0
-56 -93 -242 243 244 0
-56 -93 -242 -243 -244 0
24 94 173 201 245 0
24 94 173 -201 -245 0
24 94 -173 201 -245 0
24 94 -173 -201 245 0
24 -94 173 201 -245 0
24 -94 173 -201 245 0
24 -94 -173 201 245 0
24 -94 -173 -201 -245 0
-24 94 173 201 -245 0
-24 94 173 -201 245 0
-24 94 -173 201 245 0
-24 94 -173 -201 -245 0
-24 -94 173 201 245 0
-24 -94 173 -201 -245 0
-24 -94 -173 201 -245 0
-24 -94 -173 -201 245 0
82 128 151 246 -247 0
82 128 151 -246 247 0
82 128 -151 246 247 0
82 128 -151 -246 -247 0
82 -128 151 246 247 0
82 -128 151 -246 -247 0
82 -128 -151 246 -247 0
82 -128 -151 -246 247 0
-82 128 151 246 247 0
-82 128 151 -246 -247 0
-82 128 -151 246 -247 0
-82 128 -151 -246 247 0
-82 -128 151 246 -247 0
-82 -128 151 -246 247 0
-82 -128 -151 246 247 0
-82 -128 -151 -246 -247 0
179 213 225 239 248 0
179 213 225 -239 -248 0
179 213 -225 239 -248 0
179 213 -225 -239 248 0
179 -213 225 239 -248 0
179 -213 225 -239 248 0
179 -213 -225 239 248 0
179 -213 -225 -239 -248 0
-179 213 225 239 -248 0
-179 213 225 -239 248 0
-179 213 -225 239 248 0
-179 213 -225 -239 -248 0
-179 -213 225 239 248 0
-179 -213 225 -239 -248 0
-179 -213 -225 239 -248 0
-179 -213 -225 -239 248 0
61 83 169 190 246 0
61 83 169 -190 -246 0
61 83 -169 190 -246 0
61 83 -169 -190 246 0
61 -83 169 190 -246 0
61 -83 169 -190 246 0
61 -83 -169 190 246 0
61 -83 -169 -190 -246 0
-61 83 169 190 -246 0
-61 83 169 -190 246 0
-61 83 -169 190 246 0
-61 83 -169 -190 -246 0
-61 -83 169 190 246 0
-61 -83 169 -190 -246 0
-61 -83 -169 190 -246 0
-61 -83 -169 -190 246 0
136 186 195 232 -249 0
136 186 195 -232 249 0
136 186 -195 232 249 0
136 186 -195 -232 -249 0
136 -186 195 232 249 0
136 -186 195 -232 -249 0
136 -186 -195 232 -249 0
136 -186 -195 -232 249 0
-136 186 195 232 249 0
-136 186 195 -232 -249 0
-136 186 -195 232 -249 0
-136 186 -195 -232 249 0
-136 -186 195 232 -249 0
-136 -186 195 -232 249 0
-136 -186 -195 232 249 0
-136 -186 -195 -232 -249 0
101 174 199 202 247 0
101 174 199 -202 -247 0
101 174 -199 202 -247 0
101 174 -199 -202 247 0
101 -174 199 202 -247 0
101 -174 199 -202 247 0
101 -174 -199 202 247 0
101 -174 -199 -202 -247 0
-101 174 199 202 -247 0
-101 174 199 -202 247 0
-101 174 -199 202 247 0
-101 174 -199 -202 -247 0
-101 -174 199 202 247 0
-101 -174 199 -202 -247 0
-101 -174 -199 202 -247 0
-101 -174 -199 -202 247 0
70 107 197 219 243 0
70 107 197 -219 -243 0
70 107 -197 219 -243 0
70 107 -197 -219 243 0
70 -107 197 219 -243 0
70 -107 197 -219 243 0
70 -107 -197 219 243 0
70 -107 -197 -219 -243 0
-70 107 197 219 -243 0
-70 107 197 -219 243 0
-70 107 -197 219 243 0
-70 107 -197 -219 -243 0
-70 -107 197 219 243 0
-70 -107 197 -219 -243 0
-70 -107 -197 219 -243 0
-70 -107 -197 -219 243 0
147 155 170 222 250 0
147 155 170 -222 -250 0
147 155 -170 222 -250 0
147 155 -170 -222 250 0
147 -155 170 222 -250 0
147 -155 170 -222 250 0
147 -155 -170 222 250 0
147 -155 -170 -222 -250 0
-147 155 170 222 -250 0
-147 155 170 -222 250 0
-147 155 -170 222 250 0
-147 155 -170 -222 -250 0
-147 -155 170 222 250 0
-147 -155 170 -222 -250 0
-147 -155 -170 222 -250 0
-147 -155 -170 -222 250 0
5 47 203 237 244 0
5 47 203 -237 -244 0
5 47 -203 237 -244 0
5 47 -203 -237 244 0
5 -47 203 237 -244 0
5 -47 203 -237 244 0
5 -47 -203 237 244 0
5 -47 -203 -237 -244 0
-5 47 203 237 -244 0
-5 47 203 -237 244 0
-5 47 -203 237 244 0
-5 47 -203 -237 -244 0
-5 -47 203 237 244 0
-5 -47 203 -237 -244 0
-5 -47 -203 237 -244 0
-5 -47 -203 -237 244 0
42 156 183 233 249 0
42 156 183 -233 -249 0
42 156 -183 233 -249 0
42 156 -183 -233 249 0
42 -156 183 233 -249 0
42 -156 183 -233 249 0
42 -156 -183 233 249 0
42 -156 -183 -233 -249 0
-42 156 183 233 -249 0
-42 156 183 -233 249 0
-42 156 -183 233 249 0
-42 156 -183 -233 -249 0
-42 -156 183 233 249 0
-42 -156 183 -233 -249 0
-42 -156 -183 233 -249 0
-42 -156 -183 -233 249 0
113 187 193 226 -241 0
113 187 193 -226 241 0
113 187 -193 226 241 0
113 187 -193 -226 -241 0
113 -187 193 226 241 0
113 -187 193 -226 -241 0
113 -187 -193 226 -241 0
113 -187 -193 -226 241 0
-113 187 193 226 241 0
-113 187 193 -226 -241 0
-113 187 -193 226 -241 0
-113 187 -193 -226 241 0
-113 -187 193 226 -241 0
-113 -187 193 -226 241 0
-113 -187 -193 226 241 0
-113 -187 -193 -226 -241 0
98 129 139 227 248 0
98 129 139 -227 -248 0
98 129 -139 227 -248 0
98 129 -139 -227 248 0
98 -129 139 227 -248 0
98 -129 139 -227 248 0
98 -129 -139 227 248 0
98 -129 -139 -227 -248 0
-98 129 139 227 -248 0
-98 129 139 -227 248 0
-98 129 -139 227 248 0
-98 129 -139 -227 -248 0
-98 -129 139 227 248 0
-98 -129 139 -227 -248 0
-98 -129 -139 227 -248 0
-98 -129 -139 -227 248 0
108 122 214 228 250 0
108 122 214 -228 -250 0
108 122 -214 228 -250 0
108 122 -214 -228 250 0
108 -122 214 228 -250 0
108 -122 214 -228 250 0
108 -122 -214 228 250 0
108 -122 -214 -228 -250 0
-108 122 214 228 -250 0
-108 122 214 -228 250 0
-108 122 -214 228 250 0
-108 122 -214 -228 -250 0
-108 -122 214 228 250 0
-108 -122 214 -228 -250 0
-108 -122 -214 228 -250 0
-108 -122 -214 -228 250 0
74 109 140 207 -245 0
74 109 140 -207 245 0
74 109 -140 207 245 0
74 109 -140 -207 -245 0
74 -109 140 207 245 0
74 -109 140 -207 -245 0
74 -109 -140 207 -245 0
74 -109 -140 -207 245 0
-74 109 140 207 245 0
-74 109 140 -207 -245 0
-74 109 -140 207 -245 0
-74 109 -140 -207 245 0
-74 -109 140 207 -245 0
-74 -109 140 -207 245 0
-74 -109 -140 207 245 0
-74 -109 -140 -207 -245 0
75 84 130 159 196 0
75 84 130 -159 -196 0
75 84 -130 159 -196 0
75 84 -130 -159 196 0
75 -84 130 159 -196 0
75 -84 130 -159 196 0
75 -84 -130 159 196 0
75 -84 -130 -159 -196 0
-75 84 130 159 -196 0
-75 84 130 -159 196 0
-75 84 -130 159 196 0
-75 84 -130 -159 -196 0
-75 -84 130 159 196 0
-75 -84 130 -159 -196 0
-75 -84 -130 159 -196 0
-75 -84 -130 -159 196 0
